c numero: 35
c nombre: n-40-d-0.3
c densidad: 0.3
p edges 40 229
e 1 4
e 1 11
e 1 19
e 1 20
e 1 22
e 1 23
e 1 30
e 1 33
e 1 36
e 2 3
e 2 8
e 2 9
e 2 11
e 2 12
e 2 16
e 2 22
e 2 36
e 2 39
e 3 5
e 3 14
e 3 15
e 3 18
e 3 25
e 3 27
e 3 28
e 4 6
e 4 9
e 4 15
e 4 16
e 4 18
e 4 25
e 4 35
e 4 36
e 4 39
e 4 40
e 5 6
e 5 8
e 5 10
e 5 12
e 5 16
e 5 17
e 5 26
e 5 28
e 5 29
e 5 31
e 5 32
e 5 35
e 5 39
e 6 11
e 6 15
e 6 16
e 6 17
e 6 18
e 6 22
e 6 25
e 6 27
e 6 29
e 6 31
e 6 34
e 6 35
e 7 15
e 7 19
e 7 30
e 7 40
e 8 11
e 8 14
e 8 15
e 8 16
e 8 18
e 8 25
e 8 27
e 8 32
e 9 10
e 9 11
e 9 14
e 9 15
e 9 16
e 9 17
e 9 21
e 9 25
e 9 26
e 9 27
e 9 28
e 9 29
e 9 34
e 9 35
e 9 37
e 10 19
e 10 24
e 10 25
e 10 27
e 10 31
e 10 32
e 10 33
e 10 36
e 10 37
e 11 12
e 11 14
e 11 16
e 11 17
e 11 22
e 11 24
e 11 27
e 11 28
e 11 32
e 11 35
e 11 37
e 12 13
e 12 24
e 12 26
e 12 27
e 12 32
e 12 33
e 12 35
e 12 39
e 13 17
e 13 21
e 13 24
e 13 28
e 13 31
e 14 15
e 14 18
e 14 19
e 14 28
e 14 29
e 14 34
e 14 36
e 14 37
e 15 22
e 15 25
e 15 31
e 15 34
e 15 37
e 15 40
e 16 17
e 16 18
e 16 19
e 16 21
e 16 26
e 16 28
e 16 29
e 16 30
e 16 31
e 16 35
e 16 38
e 17 23
e 17 26
e 17 27
e 17 33
e 17 34
e 17 37
e 18 23
e 18 24
e 18 29
e 18 30
e 18 32
e 18 36
e 18 37
e 19 21
e 19 22
e 19 27
e 19 28
e 19 29
e 19 31
e 19 32
e 19 34
e 19 36
e 19 40
e 20 21
e 20 23
e 20 25
e 20 26
e 20 28
e 20 34
e 20 36
e 20 37
e 21 27
e 21 28
e 21 34
e 21 39
e 22 24
e 22 29
e 22 30
e 22 34
e 22 35
e 22 36
e 22 38
e 23 26
e 23 27
e 23 30
e 23 32
e 23 36
e 24 35
e 24 37
e 24 39
e 25 27
e 25 31
e 25 33
e 25 35
e 25 36
e 26 27
e 26 30
e 26 38
e 26 39
e 26 40
e 27 28
e 27 32
e 27 33
e 27 35
e 27 40
e 28 29
e 28 32
e 28 38
e 28 40
e 29 31
e 29 34
e 30 32
e 30 34
e 30 35
e 30 38
e 31 34
e 31 37
e 32 34
e 32 36
e 33 37
e 33 40
e 34 39
e 35 39
e 36 38
